Route 1: 0 97 68 35 73 17 81 0
Route 2: 0 83 25 13 34 55 30 53 37 7 29 88 0
Route 3: 0 75 44 9 96 8 28 66 43 48 76 16 51 0
Route 4: 0 98 71 26 15 64 72 47 69 85 74 87 0
Route 5: 0 1 12 31 56 50 57 62 100 0
Route 6: 0 39 46 14 86 3 6 2 0
Route 7: 0 45 89 32 93 67 22 0
Route 8: 0 58 77 80 52 60 78 10 84 20 38 0
Route 9: 0 49 27 23 79 95 91 41 0
Route 10: 0 42 11 65 21 99 19 40 24 90 4 92 0
Route 11: 0 5 33 82 94 54 61 70 18 36 0
Route 12: 0 63 59 0
